; benchmark generated from python API
(set-info :status unknown)
(declare-sort t)
 (declare-fun socrates () t)
(declare-fun + (t t) t)
(declare-fun |1:t| () t)
(declare-fun n () t)
(declare-fun x () Int)
(declare-fun sum (Int) Int)
(declare-fun |<:t| (t t) Bool)
(declare-fun mortal (t) Bool)
(declare-fun succ (t t) Bool)
(declare-fun man (t) Bool)
(declare-fun r (t t) Bool)
(assert
 (let (($x32 (forall ((|X:t| t) (|Y:t| t) (|Z:t| t) )(=> (and (|<:t| |X:t| |Y:t|) (|<:t| |Y:t| |Z:t|)) (|<:t| |X:t| |Z:t|)))
 ))
 (let (($x15 (mortal socrates)))
 (let (($x11 (forall ((|Z:t| t) )(=> (= |Z:t| n) (= (+ |Z:t| |1:t|) (+ n |1:t|))))
 ))
 (let (($x8 (forall ((|X:t| t) )(exists ((|Y:t| t) )(succ |X:t| |Y:t|))
 )
 ))
 (let (($x41 (man socrates)))
 (let (($x24 (forall ((|X:t| t) (|Y:t| t) )(let (($x63 (r |Y:t| |X:t|)))
 (let (($x7 (r |X:t| |Y:t|)))
 (=> $x7 $x63))))
 ))
 (and $x24 $x41 $x8 $x11 $x11 $x15 $x15 $x32 $x32 $x32))))))))
(assert
 (let (($x15 (mortal socrates)))
 (and $x15)))
(assert
 (let ((?x96 (sum x)))
 (let (($x114 (and (= ?x96 (ite (<= x 0) 0 (+ x (sum (- x 1))))))))
 (and (not (=> (and $x114 (<= x 0)) (>= ?x96 x)))))))
(check-sat)
